;symbolic execution tree
(push)
(assert (le x0 java.lang.Object))
(check-sat)
(push)
(assert (= x0 java.lang.Integer))
(check-sat)
(push)
(assert (= x0 java.lang.Integer))
(check-sat)
(push)
(assert (= x0 java.lang.Integer))
(check-sat)
(pop)
(push)
(assert (not (= x0 java.lang.Integer)))
(check-sat)
(pop)
(push)
(assert (= x0 java.lang.Integer))
(check-sat)
(push)
(assert (= x0 java.lang.Integer))
(check-sat)
(pop)
(push)
(assert (not (= x0 java.lang.Integer)))
(check-sat)
(pop)
(pop)
(push)
(assert (not (= x0 java.lang.Integer)))
(check-sat)
(pop)
(pop)
(push)
(assert (not (= x0 java.lang.Integer)))
(check-sat)
(pop)
(push)
(assert (= x0 java.lang.Integer))
(check-sat)
(push)
(assert (= x0 java.lang.Integer))
(check-sat)
(pop)
(push)
(assert (not (= x0 java.lang.Integer)))
(check-sat)
(pop)
(push)
(assert (= x0 java.lang.Integer))
(check-sat)
(pop)
(push)
(assert (not (= x0 java.lang.Integer)))
(check-sat)
(pop)
(push)
(assert (= x0 java.lang.Integer))
(check-sat)
(pop)
(push)
(assert (not (= x0 java.lang.Integer)))
(check-sat)
(pop)
(push)
(assert (= x0 java.lang.Integer))
(check-sat)
(push)
(assert (= x0 java.lang.Integer))
(check-sat)
(pop)
(push)
(assert (not (= x0 java.lang.Integer)))
(check-sat)
(pop)
(push)
(assert (= x0 java.lang.Integer))
(check-sat)
(pop)
(push)
(assert (not (= x0 java.lang.Integer)))
(check-sat)
(pop)
(pop)
(push)
(assert (not (= x0 java.lang.Integer)))
(check-sat)
(pop)
(push)
(assert (= x0 java.lang.Integer))
(check-sat)
(pop)
(push)
(assert (not (= x0 java.lang.Integer)))
(check-sat)
(pop)
(push)
(assert (= x0 java.lang.Integer))
(check-sat)
(pop)
(push)
(assert (not (= x0 java.lang.Integer)))
(check-sat)
(pop)
(push)
(assert (= x0 java.lang.Integer))
(check-sat)
(push)
(assert (= x0 java.lang.Integer))
(check-sat)
(pop)
(push)
(assert (not (= x0 java.lang.Integer)))
(check-sat)
(pop)
(push)
(assert (= x0 java.lang.Integer))
(check-sat)
(pop)
(push)
(assert (not (= x0 java.lang.Integer)))
(check-sat)
(pop)
(push)
(assert (= x0 java.lang.Integer))
(check-sat)
(push)
(assert (= x0 java.lang.Integer))
(check-sat)
(pop)
(push)
(assert (not (= x0 java.lang.Integer)))
(check-sat)
(pop)
(pop)
(push)
(assert (not (= x0 java.lang.Integer)))
(check-sat)
(pop)
(push)
(assert (= x0 java.lang.Integer))
(check-sat)
(pop)
(push)
(assert (not (= x0 java.lang.Integer)))
(check-sat)
(pop)
(push)
(assert (= x0 java.lang.Integer))
(check-sat)
(pop)
(push)
(assert (not (= x0 java.lang.Integer)))
(check-sat)
(pop)
(pop)
(push)
(assert (not (= x0 java.lang.Integer)))
(check-sat)
(pop)
(push)
(assert (= x0 java.lang.Integer))
(check-sat)
(pop)
(push)
(assert (not (= x0 java.lang.Integer)))
(check-sat)
(pop)
(push)
(assert (= x0 java.lang.Integer))
(check-sat)
(pop)
(push)
(assert (not (= x0 java.lang.Integer)))
(check-sat)
(pop)
(push)
(assert (= x0 java.lang.Integer))
(check-sat)
(push)
(assert (= x0 java.lang.Integer))
(check-sat)
(pop)
(push)
(assert (not (= x0 java.lang.Integer)))
(check-sat)
(pop)
(push)
(assert (= x0 java.lang.Integer))
(check-sat)
(push)
(assert (= x0 java.lang.Integer))
(check-sat)
(pop)
(push)
(assert (not (= x0 java.lang.Integer)))
(check-sat)
(pop)
(pop)
(push)
(assert (not (= x0 java.lang.Integer)))
(check-sat)
(pop)
(pop)
(push)
(assert (not (= x0 java.lang.Integer)))
(check-sat)
(pop)
(push)
(assert (= x0 java.lang.Integer))
(check-sat)
(push)
(assert (= x0 java.lang.Integer))
(check-sat)
(pop)
(push)
(assert (not (= x0 java.lang.Integer)))
(check-sat)
(pop)
(push)
(assert (= x0 java.lang.Integer))
(check-sat)
(pop)
(push)
(assert (not (= x0 java.lang.Integer)))
(check-sat)
(pop)
(pop)
(push)
(assert (not (= x0 java.lang.Integer)))
(check-sat)
(pop)
(pop)
(push)
(assert (not (= x0 java.lang.Integer)))
(check-sat)
(pop)
(push)
(assert (= x0 java.lang.Integer))
(check-sat)
(push)
(assert (= x0 java.lang.Integer))
(check-sat)
(push)
(assert (= x0 java.lang.Integer))
(check-sat)
(pop)
(push)
(assert (not (= x0 java.lang.Integer)))
(check-sat)
(pop)
(pop)
(push)
(assert (not (= x0 java.lang.Integer)))
(check-sat)
(pop)
(pop)
(push)
(assert (not (= x0 java.lang.Integer)))
(check-sat)
(pop)
(push)
(assert (= x0 java.lang.Integer))
(check-sat)
(pop)
(push)
(assert (not (= x0 java.lang.Integer)))
(check-sat)
(pop)
(push)
(assert (= x0 java.lang.Integer))
(check-sat)
(pop)
(push)
(assert (not (= x0 java.lang.Integer)))
(check-sat)
(pop)
(push)
(assert (= x0 java.lang.Integer))
(check-sat)
(push)
(assert (= x0 java.lang.Integer))
(check-sat)
(pop)
(push)
(assert (not (= x0 java.lang.Integer)))
(check-sat)
(pop)
(push)
(assert (= x0 java.lang.Integer))
(check-sat)
(pop)
(push)
(assert (not (= x0 java.lang.Integer)))
(check-sat)
(pop)
(push)
(assert (= x0 java.lang.Integer))
(check-sat)
(pop)
(push)
(assert (not (= x0 java.lang.Integer)))
(check-sat)
(pop)
(push)
(assert (= x0 java.lang.Integer))
(check-sat)
(pop)
(push)
(assert (not (= x0 java.lang.Integer)))
(check-sat)
(pop)
(push)
(assert (= x0 java.lang.Integer))
(check-sat)
(push)
(assert (= x0 java.lang.Integer))
(check-sat)
(pop)
(push)
(assert (not (= x0 java.lang.Integer)))
(check-sat)
(pop)
(pop)
(push)
(assert (not (= x0 java.lang.Integer)))
(check-sat)
(pop)
(push)
(assert (= x0 java.lang.Integer))
(check-sat)
(push)
(assert (= x0 java.lang.Integer))
(check-sat)
(pop)
(push)
(assert (not (= x0 java.lang.Integer)))
(check-sat)
(pop)
(pop)
(push)
(assert (not (= x0 java.lang.Integer)))
(check-sat)
(pop)
(push)
(assert (= x0 java.lang.Integer))
(check-sat)
(pop)
(push)
(assert (not (= x0 java.lang.Integer)))
(check-sat)
(pop)
(pop)
(push)
(assert (not (= x0 java.lang.Integer)))
(check-sat)
(pop)
(push)
(assert (= x0 java.lang.Integer))
(check-sat)
(push)
(assert (= x0 java.lang.Integer))
(check-sat)
(push)
(assert (= x0 java.lang.Integer))
(check-sat)
(push)
(assert (= x0 java.lang.Integer))
(check-sat)
(pop)
(push)
(assert (not (= x0 java.lang.Integer)))
(check-sat)
(pop)
(pop)
(push)
(assert (not (= x0 java.lang.Integer)))
(check-sat)
(pop)
(pop)
(push)
(assert (not (= x0 java.lang.Integer)))
(check-sat)
(pop)
(push)
(assert (= x0 java.lang.Integer))
(check-sat)
(push)
(assert (= x0 java.lang.Integer))
(check-sat)
(pop)
(push)
(assert (not (= x0 java.lang.Integer)))
(check-sat)
(pop)
(pop)
(push)
(assert (not (= x0 java.lang.Integer)))
(check-sat)
(pop)
(push)
(assert (= x0 java.lang.Integer))
(check-sat)
(pop)
(push)
(assert (not (= x0 java.lang.Integer)))
(check-sat)
(pop)
(pop)
(push)
(assert (not (= x0 java.lang.Integer)))
(check-sat)
(pop)
(push)
(assert (= x0 java.lang.Integer))
(check-sat)
(push)
(assert (= x0 java.lang.Integer))
(check-sat)
(pop)
(push)
(assert (not (= x0 java.lang.Integer)))
(check-sat)
(pop)
(push)
(assert (= x0 java.lang.Integer))
(check-sat)
(pop)
(push)
(assert (not (= x0 java.lang.Integer)))
(check-sat)
(pop)
(push)
(assert (= x0 java.lang.Integer))
(check-sat)
(pop)
(push)
(assert (not (= x0 java.lang.Integer)))
(check-sat)
(pop)
(push)
(assert (= x0 java.lang.Integer))
(check-sat)
(push)
(assert (= x0 java.lang.Integer))
(check-sat)
(pop)
(push)
(assert (not (= x0 java.lang.Integer)))
(check-sat)
(pop)
(pop)
(push)
(assert (not (= x0 java.lang.Integer)))
(check-sat)
(pop)
(push)
(assert (= x0 java.lang.Integer))
(check-sat)
(pop)
(push)
(assert (not (= x0 java.lang.Integer)))
(check-sat)
(pop)
(pop)
(push)
(assert (not (= x0 java.lang.Integer)))
(check-sat)
(pop)
(push)
(assert (= x0 java.lang.Integer))
(check-sat)
(pop)
(push)
(assert (not (= x0 java.lang.Integer)))
(check-sat)
(pop)
(push)
(assert (= x0 java.lang.Integer))
(check-sat)
(pop)
(push)
(assert (not (= x0 java.lang.Integer)))
(check-sat)
(pop)
(push)
(assert (= x0 java.lang.Integer))
(check-sat)
(pop)
(push)
(assert (not (= x0 java.lang.Integer)))
(check-sat)
(pop)
(push)
(assert (= x0 java.lang.Integer))
(check-sat)
(pop)
(push)
(assert (not (= x0 java.lang.Integer)))
(check-sat)
(pop)
(push)
(assert (= x0 java.lang.Integer))
(check-sat)
(pop)
(push)
(assert (not (= x0 java.lang.Integer)))
(check-sat)
(pop)
(push)
(assert (= x0 java.lang.Integer))
(check-sat)
(push)
(assert (= x0 java.lang.Integer))
(check-sat)
(pop)
(push)
(assert (not (= x0 java.lang.Integer)))
(check-sat)
(pop)
(pop)
(push)
(assert (not (= x0 java.lang.Integer)))
(check-sat)
(pop)
(push)
(assert (= x0 java.lang.Integer))
(check-sat)
(pop)
(push)
(assert (not (= x0 java.lang.Integer)))
(check-sat)
(pop)
(push)
(assert (= x0 java.lang.Integer))
(check-sat)
(pop)
(push)
(assert (not (= x0 java.lang.Integer)))
(check-sat)
(pop)
(push)
(assert (= x0 java.lang.Integer))
(check-sat)
(push)
(assert (= x0 java.lang.Integer))
(check-sat)
(push)
(assert (= x0 java.lang.Integer))
(check-sat)
(pop)
(push)
(assert (not (= x0 java.lang.Integer)))
(check-sat)
(pop)
(pop)
(push)
(assert (not (= x0 java.lang.Integer)))
(check-sat)
(pop)
(pop)
(push)
(assert (not (= x0 java.lang.Integer)))
(check-sat)
(pop)
(push)
(assert (= x0 java.lang.Integer))
(check-sat)
(pop)
(push)
(assert (not (= x0 java.lang.Integer)))
(check-sat)
(pop)
(pop)
(push)
(assert (not (= x0 java.lang.Integer)))
(check-sat)
(pop)
